unsat
(:max-memory          18.25
 :memory              18.06
 :nlsat-conflicts     4
 :nlsat-learned-added 3
 :nlsat-propagations  17
 :nlsat-stages        4
 :num-allocs          7646
 :rlimit-count        7983
 :time                0.00
 :total-time          0.02)
